
Gurobi 13.0.2 (win64) logging started Thu Jul 23 12:20:07 2026

Set parameter LogFile to value "E:\codes\ExactEBRP\results\gf_gurobi_performance_recovery_round29\development\V12_M1__c3_replica__60s\external\native_logs\R.1.0.0.0.0.1.1.0.1.0_terminal_mip.gurobi.log"
Gurobi Optimizer version 13.0.2 build v13.0.2rc1 (win64 - Windows 10.0 (19045.2))

CPU model: 12th Gen Intel(R) Core(TM) i7-12700KF, instruction set [SSE2|AVX|AVX2]
Thread count: 12 physical cores, 20 logical processors, using up to 1 threads

Non-default parameters:
TimeLimit  2.2721491200000003e+01
MIPGap  0
MIPGapAbs  0
LogToConsole  0
Threads  1

Optimize a model with 6225 rows, 648 columns and 59365 nonzeros (Min)
Model fingerprint: 0xdaeafeac
Model has 13 linear objective coefficients
Variable types: 347 continuous, 301 integer (253 binary)
Coefficient statistics:
  Matrix range     [2e-03, 1e+05]
  Objective range  [2e-03, 1e+00]
  Bounds range     [1e-01, 8e+01]
  RHS range        [3e-02, 1e+06]

Presolve removed 737 rows and 27 columns
Presolve time: 0.16s
Presolved: 5488 rows, 621 columns, 58780 nonzeros
Variable types: 321 continuous, 300 integer (252 binary)

Root relaxation: objective 3.237665e-01, 712 iterations, 0.05 seconds (0.19 work units)

    Nodes    |    Current Node    |     Objective Bounds      |     Work
 Expl Unexpl |  Obj  Depth IntInf | Incumbent    BestBd   Gap | It/Node Time

     0     0    0.32377    0   94          -    0.32377      -     -    0s
     0     0 infeasible    0               - infeasible      -     -    0s

Cutting planes:
  Gomory: 10
  Cover: 18
  Implied bound: 49
  Clique: 28
  MIR: 67
  StrongCG: 6
  Flow cover: 44
  Zero half: 8
  Network: 1
  RLT: 13
  Relax-and-lift: 7
  BQP: 6
  PSD: 2

Explored 1 nodes (1100 simplex iterations) in 0.55 seconds (0.78 work units)
Thread count was 1 (of 20 available processors)

Solution count 0

Model is infeasible
Best objective -, best bound -, gap -

User-callback calls 708, time in user-callback 0.00 sec
